






























































































63 66 2 49 
24 23 4 46 
47 37 20 39 
58 17 67 
13 70 52 34 
60 55 48 56 
9 32 5 40 
51 64 21 28 
6 31 43 71 
75 76 15 
29 30 0 27 
14 38 19 12 
22 59 62 
26 35 44 1 
25 7 53 11 
3 73 72 50 
69 16 42 57 8 
65 41 68 
33 10 61 74 
36 18 54 45 
